1	2	1	1	5	5	0	0	0	0	0	0
800	1	0	0	0	0	0	0	0	0	0	0
100	1	0	77.75	0.39	1	0	0	0	0	0	0
100     1       0       77.75   0.39    1       0       0       0       0       0       0
50	150	0	0	0	0	9999	0	0	99999	0	0
50	75	0	0	0	0	9999	0	0	99999	0	0
50	75	0	0	0	0	9999	0	0	0	0	0
10	28	0	0	0	0	9999	0	0	0	0	0
27	10	0	0	0	0	9999	0	0	0	0	0
77	30	0	0	0	0	9999	0	0	0	0	0
40      50      0       0       0       0       9999    0       0       0       0       0
85	35	30	12	18	169	283	10	0	0	0	0
40	5	10	1	9	156	286	10	0	0	0	0
4	18	35	8	27	159	232	10	0	0	0	0
65	55	14	12	2	127	212	10	0	0	0	0
2	40	20	1	19	197	291	10	0	0	0	0

